unsat
(:binary-propagations  7
 :conflicts            1
 :final-checks         1
 :max-generation       1
 :max-memory           22.76
 :memory               20.71
 :mk-bool-var          105
 :mk-clause            27
 :mk-clause-binary     54
 :num-allocs           3173190
 :num-checks           1
 :propagations         7
 :quant-instantiations 23
 :restarts             1
 :rlimit-count         19502
 :time                 0.01)
